(set-info :smt-lib-version 2.6)
(set-logic ALL)
(set-info :source |
Benchmarks used in the followin paper:
Big proof engines as little proof engines: new results on rewrite-based satisfiability procedure
Alessandro Armando, Maria Paola Bonacina, Silvio Ranise, Stephan Schulz. 
PDPAR'05
http://www.ai.dist.unige.it/pdpar05/


|)
(set-info :category "crafted")
(set-info :status sat)

(declare-sort Element 0)
(declare-fun a_120 () (Seq Element))
(declare-fun a_121 () (Seq Element))
(declare-fun a_122 () (Seq Element))
(declare-fun a_123 () (Seq Element))
(declare-fun a_124 () (Seq Element))
(declare-fun a_125 () (Seq Element))
(declare-fun a_126 () (Seq Element))
(declare-fun a_127 () (Seq Element))
(declare-fun a_128 () (Seq Element))
(declare-fun a_129 () (Seq Element))
(declare-fun a_130 () (Seq Element))
(declare-fun a_131 () (Seq Element))
(declare-fun a_132 () (Seq Element))
(declare-fun a_133 () (Seq Element))
(declare-fun a_134 () (Seq Element))
(declare-fun a_135 () (Seq Element))
(declare-fun a_136 () (Seq Element))
(declare-fun a_137 () (Seq Element))
(declare-fun a_138 () (Seq Element))
(declare-fun a_139 () (Seq Element))
(declare-fun a1 () (Seq Element))
(declare-fun e1 () Element)
(declare-fun e10 () Element)
(declare-fun e2 () Element)
(declare-fun e3 () Element)
(declare-fun e4 () Element)
(declare-fun e5 () Element)
(declare-fun e6 () Element)
(declare-fun e7 () Element)
(declare-fun e8 () Element)
(declare-fun e9 () Element)
(declare-fun i1 () Int)
(declare-fun i10 () Int)
(declare-fun i2 () Int)
(declare-fun i3 () Int)
(declare-fun i4 () Int)
(declare-fun i5 () Int)
(declare-fun i6 () Int)
(declare-fun i7 () Int)
(declare-fun i8 () Int)
(declare-fun i9 () Int)
(assert (= a_120 (seq.update a1 i1 (seq.unit e1))))
(assert (= a_121 (seq.update a_120 i2 (seq.unit e2))))
(assert (= a_122 (seq.update a_121 i3 (seq.unit e3))))
(assert (= a_123 (seq.update a_122 i4 (seq.unit e4))))
(assert (= a_124 (seq.update a_123 i5 (seq.unit e5))))
(assert (= a_125 (seq.update a_124 i6 (seq.unit e6))))
(assert (= a_126 (seq.update a_125 i7 (seq.unit e7))))
(assert (= a_127 (seq.update a_126 i8 (seq.unit e8))))
(assert (= a_128 (seq.update a_127 i9 (seq.unit e9))))
(assert (= a_129 (seq.update a_128 i1 (seq.unit e1))))
(assert (= a_130 (seq.update a1 i9 (seq.unit e9))))
(assert (= a_131 (seq.update a_130 i3 (seq.unit e3))))
(assert (= a_132 (seq.update a_131 i5 (seq.unit e5))))
(assert (= a_133 (seq.update a_132 i4 (seq.unit e4))))
(assert (= a_134 (seq.update a_133 i6 (seq.unit e6))))
(assert (= a_135 (seq.update a_134 i1 (seq.unit e1))))
(assert (= a_136 (seq.update a_135 i10 (seq.unit e10))))
(assert (= a_137 (seq.update a_136 i2 (seq.unit e2))))
(assert (= a_138 (seq.update a_137 i8 (seq.unit e8))))
(assert (= a_139 (seq.update a_138 i7 (seq.unit e7))))
(assert (not (= i9 i10)))
(assert (not (= i8 i10)))
(assert (not (= i8 i9)))
(assert (not (= i7 i10)))
(assert (not (= i7 i9)))
(assert (not (= i7 i8)))
(assert (not (= i6 i10)))
(assert (not (= i6 i9)))
(assert (not (= i6 i8)))
(assert (not (= i6 i7)))
(assert (not (= i5 i10)))
(assert (not (= i5 i9)))
(assert (not (= i5 i8)))
(assert (not (= i5 i7)))
(assert (not (= i5 i6)))
(assert (not (= i4 i10)))
(assert (not (= i4 i9)))
(assert (not (= i4 i8)))
(assert (not (= i4 i7)))
(assert (not (= i4 i6)))
(assert (not (= i4 i5)))
(assert (not (= i3 i10)))
(assert (not (= i3 i9)))
(assert (not (= i3 i8)))
(assert (not (= i3 i7)))
(assert (not (= i3 i6)))
(assert (not (= i3 i5)))
(assert (not (= i3 i4)))
(assert (not (= i2 i10)))
(assert (not (= i2 i9)))
(assert (not (= i2 i8)))
(assert (not (= i2 i7)))
(assert (not (= i2 i6)))
(assert (not (= i2 i5)))
(assert (not (= i2 i4)))
(assert (not (= i2 i3)))
(assert (not (= i1 i10)))
(assert (not (= i1 i9)))
(assert (not (= i1 i8)))
(assert (not (= i1 i7)))
(assert (not (= i1 i6)))
(assert (not (= i1 i5)))
(assert (not (= i1 i4)))
(assert (not (= i1 i3)))
(assert (not (= i1 i2)))
(assert (not (= a_129 a_139)))
(check-sat)
(exit)
